0 0 0 0
0 1 0 0
0 2 0 0
0 3 1 1
0 4 0 5
0 5 0 10
0 6 0 6
0 7 0 15
0 8 0 1
0 9 0 14
0 10 1 6
0 11 0 5
0 12 0 15
0 13 0 10
0 14 1 15
0 15 0 15
0 16 1 10
0 17 2 17
0 18 2 17
0 19 0 17
0 20 0 16
0 21 0 24
0 22 0 23
0 23 1 23
0 24 0 17
0 25 0 23
0 26 0 28
0 27 0 31
0 28 2 28
0 29 0 33
0 30 0 30
0 31 0 34
